NAME          COPTPROB
OBJSENSE
  MIN
ROWS
 N  __OBJ___
 L  C62     
 L  C95     
 L  C148    
 L  C157    
 L  C245    
COLUMNS
    MARKER    'MARKER'                 'INTORG'
    x24       __OBJ___  -1
    x24       C62       1
    x24       C245      1
    x47       __OBJ___  -1
    x47       C157      1
    x47       C245      1
    x73       __OBJ___  -1
    x73       C95       1
    x73       C148      1
    x97       __OBJ___  -1
    x97       C62       1
    x97       C148      1
    x121      __OBJ___  -1
    x121      C95       1
    x121      C157      1
    MARKER    'MARKER'                 'INTEND'
RHS
    RHS       __OBJ___  87
    RHS       C62       1
    RHS       C95       1
    RHS       C148      1
    RHS       C157      1
    RHS       C245      1
BOUNDS
 UP BOUND     x24       1
 UP BOUND     x47       1
 UP BOUND     x73       1
 UP BOUND     x97       1
 UP BOUND     x121      1
ENDATA
